/*********************************************
 * OPL 22.1.2.0 Data
 * Author: adrien.dacostaveiga
 * Creation Date: Apr 1, 2026 at 3:36:00 PM
 *********************************************/
 
// =====================================================
// CROSS VALIDATION DATASET (AIRLAND1) - RÉDUIT 50%
// =====================================================

// ======================
// DIMENSIONS
// ======================
n = 5;
m = 1;

// ======================
// OBJECTIF COMMUN (P1 / P2 / P3)
// ======================
T = [
  90, 150, 60, 70, 80
];

// ======================
// PENALITIES
// ======================
cMinus = [
  10, 10, 30, 30, 30
];

cPlus = [
  10, 10, 30, 30, 30
];

// ======================
// DEADLINES
// ======================
A = [
  129, 195, 89, 96, 110
];

// ======================
// TAXI TIMES (m = 1)
// ======================
t = [
  [10],
  [10],
  [10],
  [10],
  [10]
];

// ======================
// SOLUTIONS P1 / P2 / P3
// ======================
xP1 = [95 150 60 70 80];

xP2 = [54 120 14 21 35];

xP3 = [129 126 51 43 35];

// ======================
// RUNWAY ASSIGNMENT
// ======================
runwayP1 = [1,1,1,1,1];
runwayP2 = [1,1,1,1,1];
runwayP3 = [1,1,1,1,1];